SAT
2 -92 23 16 -4 47 66 1 27 6 60 -58 49 76 31 83 75 95 -79 -24 -70 73 45 -87 52 -33 -12 8 -59 -71 65 81 82 48 30 74 -44 98 25 -62 -64 17 -21 72 -9 89 -63 -42 29 -99 -69 -37 90 -38 -5 28 41 10 43 3 50 61 -80 -100 -11 19 -55 85 56 13 57 -20 84 18 -26 -88 -86 -40 91 53 -7 -22 -39 -35 -97 -78 34 54 67 15 96 -51 -36 94 -68 -46 -93 -32 -14 77 0
